\ Equation counts
\     Total        E        G        L        N        X        C        B
\	0	0	0	0
\
\ Variable counts
\                  x        b        i      s1s      s2s       sc       si
\     Total     cont   binary  integer     sos1     sos2    scont     sint
\	20	20

\ Nonzero counts
\     Total    const       NL      DLL
\
\
Minimize
 obj: [ - 9.0 x_1 * x_1 - 2.0 x_1 * x_2 - 9.5 x_1 * x_3 + 4.5 x_1 * x_4 - 15.0 x_1 * x_5 - 4.0 x_1 * x_6 + 20.0 x_1 * x_7 - 23.0 x_1 * x_8 + 3.5 x_1 * x_9 - 11.5 x_1 * x_10 - 17.0 x_1 * x_11 - 22.5 x_1 * x_12 + 2.0 x_1 * x_13 + 3.0 x_1 * x_14 + 7.0 x_1 * x_15 - 24.0 x_1 * x_16 - 6.5 x_1 * x_17 + 13.0 x_1 * x_18 + 8.0 x_1 * x_19 - 12.5 x_1 * x_20 - 2.0 x_2 * x_1 + 20.5 x_2 * x_2 + 12.5 x_2 * x_3 + 3.0 x_2 * x_4 + 7.5 x_2 * x_5 + 5.5 x_2 * x_6 + 10.0 x_2 * x_7 - 13.0 x_2 * x_8 + 14.5 x_2 * x_9 + 12.0 x_2 * x_10 + 7.5 x_2 * x_11 + 2.0 x_2 * x_12 - 6.0 x_2 * x_13 - 20.0 x_2 * x_14 - 17.5 x_2 * x_15 - 19.5 x_2 * x_16 - 8.0 x_2 * x_17 + 0.5 x_2 * x_18 - 19.0 x_2 * x_19 + 13.5 x_2 * x_20 - 9.5 x_3 * x_1 + 12.5 x_3 * x_2 + 2.0 x_3 * x_3 - 17.0 x_3 * x_4 + 21.0 x_3 * x_5 + 3.5 x_3 * x_7 - 10.0 x_3 * x_8 - 11.0 x_3 * x_9 + 3.5 x_3 * x_10 + 20.0 x_3 * x_11 - 7.5 x_3 * x_12 - 10.0 x_3 * x_13 - 22.0 x_3 * x_14 + 16.0 x_3 * x_15 + 2.0 x_3 * x_16 + 19.5 x_3 * x_17 - 8.0 x_3 * x_18 + 3.0 x_3 * x_19 - 6.0 x_3 * x_20 + 4.5 x_4 * x_1 + 3.0 x_4 * x_2 - 17.0 x_4 * x_3 + 16.5 x_4 * x_4 - 13.5 x_4 * x_5 - 17.0 x_4 * x_6 - 7.0 x_4 * x_7 - 19.5 x_4 * x_8 - 7.0 x_4 * x_9 + 7.5 x_4 * x_10 - 16.0 x_4 * x_11 - 18.0 x_4 * x_12 + 15.5 x_4 * x_13 - 13.0 x_4 * x_14 - 13.5 x_4 * x_15 + 14.0 x_4 * x_16 - 6.0 x_4 * x_17 + 4.5 x_4 * x_18 - 20.5 x_4 * x_19 + 14.0 x_4 * x_20 - 15.0 x_5 * x_1 + 7.5 x_5 * x_2 + 21.0 x_5 * x_3 - 13.5 x_5 * x_4 - 18.0 x_5 * x_5 + 2.5 x_5 * x_6 - 3.5 x_5 * x_7 - 13.5 x_5 * x_8 + 21.5 x_5 * x_9 - 8.0 x_5 * x_10 + 24.5 x_5 * x_11 + 24.0 x_5 * x_12 - 17.5 x_5 * x_13 - 7.5 x_5 * x_14 + 21.0 x_5 * x_16 - 11.0 x_5 * x_17 + 15.0 x_5 * x_18 + 11.5 x_5 * x_19 - 21.5 x_5 * x_20 - 4.0 x_6 * x_1 + 5.5 x_6 * x_2 - 17.0 x_6 * x_4 + 2.5 x_6 * x_5 + 23.0 x_6 * x_6 - 3.0 x_6 * x_7 + 1.5 x_6 * x_8 + 4.5 x_6 * x_9 + 21.5 x_6 * x_10 - 15.0 x_6 * x_11 + 18.5 x_6 * x_12 - 8.0 x_6 * x_13 - 14.5 x_6 * x_14 + 23.5 x_6 * x_15 - 3.5 x_6 * x_16 - 14.5 x_6 * x_17 - 19.5 x_6 * x_18 - 17.0 x_6 * x_19 - 15.0 x_6 * x_20 + 20.0 x_7 * x_1 + 10.0 x_7 * x_2 + 3.5 x_7 * x_3 - 7.0 x_7 * x_4 - 3.5 x_7 * x_5 - 3.0 x_7 * x_6 - 8.0 x_7 * x_7 + 3.5 x_7 * x_8 - 10.5 x_7 * x_9 + 11.5 x_7 * x_10 - 6.0 x_7 * x_12 + 16.0 x_7 * x_13 - 2.5 x_7 * x_14 - 8.5 x_7 * x_15 + 22.5 x_7 * x_16 + 21.0 x_7 * x_17 + 7.0 x_7 * x_18 + 13.5 x_7 * x_19 - 24.0 x_7 * x_20 - 23.0 x_8 * x_1 - 13.0 x_8 * x_2 - 10.0 x_8 * x_3 - 19.5 x_8 * x_4 - 13.5 x_8 * x_5 + 1.5 x_8 * x_6 + 3.5 x_8 * x_7 - 8.5 x_8 * x_8 - 14.5 x_8 * x_9 + 2.0 x_8 * x_10 - 4.0 x_8 * x_11 - 1.0 x_8 * x_12 + 8.5 x_8 * x_13 - 2.5 x_8 * x_14 - 20.5 x_8 * x_15 + 23.5 x_8 * x_16 - 1.5 x_8 * x_17 + 7.0 x_8 * x_18 - 15.0 x_8 * x_19 + 3.5 x_8 * x_20 + 3.5 x_9 * x_1 + 14.5 x_9 * x_2 - 11.0 x_9 * x_3 - 7.0 x_9 * x_4 + 21.5 x_9 * x_5 + 4.5 x_9 * x_6 - 10.5 x_9 * x_7 - 14.5 x_9 * x_8 + 14.5 x_9 * x_9 + 12.0 x_9 * x_10 - 15.5 x_9 * x_11 - 5.5 x_9 * x_12 - 14.5 x_9 * x_13 - 19.5 x_9 * x_14 + 11.5 x_9 * x_15 - 12.0 x_9 * x_16 - 5.0 x_9 * x_17 + 22.0 x_9 * x_18 - 23.5 x_9 * x_19 + 6.0 x_9 * x_20 - 11.5 x_10 * x_1 + 12.0 x_10 * x_2 + 3.5 x_10 * x_3 + 7.5 x_10 * x_4 - 8.0 x_10 * x_5 + 21.5 x_10 * x_6 + 11.5 x_10 * x_7 + 2.0 x_10 * x_8 + 12.0 x_10 * x_9 - 4.5 x_10 * x_10 - 5.5 x_10 * x_11 + 14.5 x_10 * x_12 + 7.5 x_10 * x_13 - 9.5 x_10 * x_14 - 21.5 x_10 * x_15 - 16.5 x_10 * x_16 + 11.0 x_10 * x_17 - 6.0 x_10 * x_18 - 3.0 x_10 * x_19 - 9.0 x_10 * x_20 - 17.0 x_11 * x_1 + 7.5 x_11 * x_2 + 20.0 x_11 * x_3 - 16.0 x_11 * x_4 + 24.5 x_11 * x_5 - 15.0 x_11 * x_6 - 4.0 x_11 * x_8 - 15.5 x_11 * x_9 - 5.5 x_11 * x_10 + 1.0 x_11 * x_11 + 16.0 x_11 * x_12 + 17.5 x_11 * x_13 + 22.0 x_11 * x_14 + 3.0 x_11 * x_15 - 17.0 x_11 * x_16 + 20.5 x_11 * x_17 + 6.0 x_11 * x_18 + 24.5 x_11 * x_19 + 1.0 x_11 * x_20 - 22.5 x_12 * x_1 + 2.0 x_12 * x_2 - 7.5 x_12 * x_3 - 18.0 x_12 * x_4 + 24.0 x_12 * x_5 + 18.5 x_12 * x_6 - 6.0 x_12 * x_7 - 1.0 x_12 * x_8 - 5.5 x_12 * x_9 + 14.5 x_12 * x_10 + 16.0 x_12 * x_11 - 1.0 x_12 * x_12 - 11.0 x_12 * x_13 - 24.5 x_12 * x_14 - 7.0 x_12 * x_15 + 10.0 x_12 * x_16 + 7.0 x_12 * x_17 - 17.5 x_12 * x_18 + 16.0 x_12 * x_19 - 11.0 x_12 * x_20 + 2.0 x_13 * x_1 - 6.0 x_13 * x_2 - 10.0 x_13 * x_3 + 15.5 x_13 * x_4 - 17.5 x_13 * x_5 - 8.0 x_13 * x_6 + 16.0 x_13 * x_7 + 8.5 x_13 * x_8 - 14.5 x_13 * x_9 + 7.5 x_13 * x_10 + 17.5 x_13 * x_11 - 11.0 x_13 * x_12 + 7.0 x_13 * x_13 + 6.0 x_13 * x_14 - 12.5 x_13 * x_15 - 2.5 x_13 * x_16 - 19.0 x_13 * x_17 - 9.5 x_13 * x_18 - 22.0 x_13 * x_19 + 19.5 x_13 * x_20 + 3.0 x_14 * x_1 - 20.0 x_14 * x_2 - 22.0 x_14 * x_3 - 13.0 x_14 * x_4 - 7.5 x_14 * x_5 - 14.5 x_14 * x_6 - 2.5 x_14 * x_7 - 2.5 x_14 * x_8 - 19.5 x_14 * x_9 - 9.5 x_14 * x_10 + 22.0 x_14 * x_11 - 24.5 x_14 * x_12 + 6.0 x_14 * x_13 - 5.0 x_14 * x_14 + 8.5 x_14 * x_15 + 7.0 x_14 * x_16 + 1.5 x_14 * x_17 + 11.5 x_14 * x_18 - 8.5 x_14 * x_19 - 8.5 x_14 * x_20 + 7.0 x_15 * x_1 - 17.5 x_15 * x_2 + 16.0 x_15 * x_3 - 13.5 x_15 * x_4 + 23.5 x_15 * x_6 - 8.5 x_15 * x_7 - 20.5 x_15 * x_8 + 11.5 x_15 * x_9 - 21.5 x_15 * x_10 + 3.0 x_15 * x_11 - 7.0 x_15 * x_12 - 12.5 x_15 * x_13 + 8.5 x_15 * x_14 + 1.0 x_15 * x_15 - 22.5 x_15 * x_16 - 7.5 x_15 * x_17 - 1.5 x_15 * x_18 - 10.0 x_15 * x_19 + 24.0 x_15 * x_20 - 24.0 x_16 * x_1 - 19.5 x_16 * x_2 + 2.0 x_16 * x_3 + 14.0 x_16 * x_4 + 21.0 x_16 * x_5 - 3.5 x_16 * x_6 + 22.5 x_16 * x_7 + 23.5 x_16 * x_8 - 12.0 x_16 * x_9 - 16.5 x_16 * x_10 - 17.0 x_16 * x_11 + 10.0 x_16 * x_12 - 2.5 x_16 * x_13 + 7.0 x_16 * x_14 - 22.5 x_16 * x_15 - 17.5 x_16 * x_16 + 11.5 x_16 * x_17 - 14.5 x_16 * x_18 + 7.0 x_16 * x_19 + 7.0 x_16 * x_20 - 6.5 x_17 * x_1 - 8.0 x_17 * x_2 + 19.5 x_17 * x_3 - 6.0 x_17 * x_4 - 11.0 x_17 * x_5 - 14.5 x_17 * x_6 + 21.0 x_17 * x_7 - 1.5 x_17 * x_8 - 5.0 x_17 * x_9 + 11.0 x_17 * x_10 + 20.5 x_17 * x_11 + 7.0 x_17 * x_12 - 19.0 x_17 * x_13 + 1.5 x_17 * x_14 - 7.5 x_17 * x_15 + 11.5 x_17 * x_16 - 10.0 x_17 * x_17 - 3.5 x_17 * x_18 + 9.5 x_17 * x_19 + 3.0 x_17 * x_20 + 13.0 x_18 * x_1 + 0.5 x_18 * x_2 - 8.0 x_18 * x_3 + 4.5 x_18 * x_4 + 15.0 x_18 * x_5 - 19.5 x_18 * x_6 + 7.0 x_18 * x_7 + 7.0 x_18 * x_8 + 22.0 x_18 * x_9 - 6.0 x_18 * x_10 + 6.0 x_18 * x_11 - 17.5 x_18 * x_12 - 9.5 x_18 * x_13 + 11.5 x_18 * x_14 - 1.5 x_18 * x_15 - 14.5 x_18 * x_16 - 3.5 x_18 * x_17 + 20.5 x_18 * x_18 - 12.5 x_18 * x_19 + 10.5 x_18 * x_20 + 8.0 x_19 * x_1 - 19.0 x_19 * x_2 + 3.0 x_19 * x_3 - 20.5 x_19 * x_4 + 11.5 x_19 * x_5 - 17.0 x_19 * x_6 + 13.5 x_19 * x_7 - 15.0 x_19 * x_8 - 23.5 x_19 * x_9 - 3.0 x_19 * x_10 + 24.5 x_19 * x_11 + 16.0 x_19 * x_12 - 22.0 x_19 * x_13 - 8.5 x_19 * x_14 - 10.0 x_19 * x_15 + 7.0 x_19 * x_16 + 9.5 x_19 * x_17 - 12.5 x_19 * x_18 - 5.0 x_19 * x_19 + 1.5 x_19 * x_20 - 12.5 x_20 * x_1 + 13.5 x_20 * x_2 - 6.0 x_20 * x_3 + 14.0 x_20 * x_4 - 21.5 x_20 * x_5 - 15.0 x_20 * x_6 - 24.0 x_20 * x_7 + 3.5 x_20 * x_8 + 6.0 x_20 * x_9 - 9.0 x_20 * x_10 + 1.0 x_20 * x_11 - 11.0 x_20 * x_12 + 19.5 x_20 * x_13 - 8.5 x_20 * x_14 + 24.0 x_20 * x_15 + 7.0 x_20 * x_16 + 3.0 x_20 * x_17 + 10.5 x_20 * x_18 + 1.5 x_20 * x_19 - 24.5 x_20 * x_20 ] + 15.0 x_1 - 46.0 x_2 + 42.0 x_3 + 16.0 x_4 + 33.0 x_5 - 34.0 x_6 - 39.0 x_7 - 10.0 x_8 + 0.0 x_9 + 48.0 x_10 + 46.0 x_11 + 34.0 x_12 + 15.0 x_13 + 31.0 x_14 + 5.0 x_15 + 31.0 x_16 - 49.0 x_17 + 9.0 x_18 + 6.0 x_19 + 31.0 x_20

Subject To

Bounds
 x_1 <= 1.0
 x_2 <= 1.0
 x_3 <= 1.0
 x_4 <= 1.0
 x_5 <= 1.0
 x_6 <= 1.0
 x_7 <= 1.0
 x_8 <= 1.0
 x_9 <= 1.0
 x_10 <= 1.0
 x_11 <= 1.0
 x_12 <= 1.0
 x_13 <= 1.0
 x_14 <= 1.0
 x_15 <= 1.0
 x_16 <= 1.0
 x_17 <= 1.0
 x_18 <= 1.0
 x_19 <= 1.0
 x_20 <= 1.0

End